c ---- [ banner ] ------------------------------------------------------------
c
c Kissat SAT Solver
c 
c Copyright (c) 2021-2024 Armin Biere University of Freiburg
c Copyright (c) 2019-2021 Armin Biere Johannes Kepler University Linz
c 
c Version 4.0.1 88e10f59b00fe67ce1111ede5ed1da1e8fcee480
c gcc (Ubuntu 11.4.0-1ubuntu1~22.04) 11.4.0 -W -Wall -ggdb3 -DEMBEDDED -DLOGGING -DMETRICS
c Thu Nov 14 19:28:28 CST 2024 Linux PalGoose 5.15.167.4-microsoft-standard-WSL2 x86_64
c
c ---- [ parsing ] -----------------------------------------------------------
c
c opened and reading DIMACS file:
c
c   Benchmark_test/test.cnf
c
c parsed 'p cnf 42387 183641' header
c closing input after reading 3451225 bytes (3 MB)
c finished parsing after 0.17 seconds
c
c ---- [ solving ] -----------------------------------------------------------
c
c  seconds switched rate     size/glue tier1  binary           remaining
c         MB reductions conflicts size  tier2     irredundant
c          level restarts redundant glue  trail           variables
c
c *  0.17 34 0 0 0  0 0   0   0 0.0 0 0 0 0 0% 78594 105047 42387 100%
c (  0.18 35 0 0 0  0 0   0   0 0.0 0 0 0 0 0% 78594 105047 42387 100%
c .  0.18 35 0 0 0  0 0   0   0 0.0 0 0 0 0 0% 78594 105047 42387 100%
c c  0.96 53 0 0 0  0 0   0   0 0.0 0 0 0 0 0% 78431 104827 40936 97%
c d  1.02 53 0 0 0  0 0   0   0 0.0 0 0 0 0 0% 75150 104826 40774 96%
c b  1.06 53 0 0 0  0 0   0   0 0.0 0 0 0 0 0% 75150 104826 40240 95%
c =  1.23 53 0 0 0  0 0   0   0 0.0 0 0 0 0 0% 75012 104625 40153 95%
c d  1.25 53 0 0 0  0 0   0   0 0.0 0 0 0 0 0% 75027 104466 40153 95%
c d  1.32 53 0 0 0  0 0   0   0 0.0 0 0 0 0 0% 74865 104466 40072 95%
c f  2.57 52 0 0 0  0 0   0   0 0.0 0 0 0 0 0% 53138 104463 41627 98%
c e  4.04 56 0 0 0  0 0   0   0 0.0 0 0 0 0 0% 15143 129572 25966 61%
c )  4.04 56 0 0 0  0 0   0   0 0.0 0 0 0 0 0% 15143 129572 25966 61%
c {  4.05 56 0 0 0  0 0   0   0 0.0 0 0 2 6 0% 15143 129572 25966 61%
c i  4.16 56 46 0 0 37 12 193 154 2.5 13 5 3 9 21% 15157 129570 25965 61%
c i  4.17 56 39 0 0 37 10 284 238 2.3 11 5 3 9 16% 15159 129570 25964 61%
c i  4.18 56 39 0 0 37 10 285 238 2.3 11 5 3 9 16% 15159 129570 25963 61%
c i  4.24 56 38 0 0 67 13 342 285 2.3 12 5 3 9 15% 15165 129569 25962 61%
c i  4.26 56 47 0 0 71 11 479 396 2.4 12 5 2 9 13% 15170 129568 25961 61%
c i  4.26 56 47 0 0 71 12 491 403 2.3 11 5 2 9 13% 15172 129568 25960 61%
c i  4.26 56 47 0 0 71 12 492 403 2.3 11 5 2 9 13% 15172 129568 25931 61%
c
c  seconds  switched  rate     size/glue tier1    binary           remaining
c         MB reductions conflicts    size  tier2      irredundant
c          level restarts  redundant   glue   trail           variables
c
c i  4.29 56 62 0 0 74 14 549 434 2.3 11 5 2 9 13% 15183 129567 25930 61%
c i  4.49 56 62 0 0 96 15 666 531 2.7 14 5 2 9 15% 15195 129567 25929 61%
c -  4.69 55 58 0 1 127 12 1001 718 2.5 13 5 2 7 14% 15136 129288 25929 61%
c }  4.69 55 58 1 1 127 12 1001 718 2.5 13 5 2 7 14% 15136 129288 25929 61%
c [  4.69 55 0 1 1 127 0 1001 718 0.0 0 0 2 6 0% 15136 129288 25929 61%
c B  4.69 55 0 1 1 127 0 1001 718 0.0 0 0 2 6 0% 15136 129288 25929 61%
c -  4.92 55 72 1 2 127 3 2002 1546 2.5 20 8 4 14 21% 15163 129287 25929 61%
c W  4.97 55 72 1 2 127 3 2002 1546 2.5 20 8 4 14 21% 15157 129287 25929 61%
c i  4.97 55 72 1 2 127 3 2011 1550 2.5 20 8 4 14 21% 15159 129287 25928 61%
c ]  5.68 55 68 2 2 128 3 2161 1687 2.9 26 9 4 14 24% 15163 129287 25928 61%
c {  5.68 55 58 2 2 128 12 2161 1687 2.5 13 5 2 7 14% 15163 129287 25928 61%
c i  5.68 55 58 2 2 129 12 2169 1688 2.5 13 5 2 7 14% 15169 129287 25927 61%
c i  5.71 55 59 2 2 131 12 2232 1741 2.5 12 5 2 7 14% 15176 129287 25926 61%
c i  5.71 55 58 2 2 131 12 2239 1743 2.5 12 5 2 7 14% 15178 129286 25920 61%
c i  5.73 55 58 2 2 131 12 2240 1743 2.5 12 5 2 7 14% 15178 129286 25917 61%
c c  6.85 55 50 2 2 138 10 2512 1937 3.1 15 5 2 7 20% 15634 129018 25856 61%
c d  6.88 55 50 2 2 138 10 2512 1933 3.1 15 5 2 7 20% 15611 128891 25853 61%
c b  6.90 55 50 2 2 138 10 2512 1933 3.1 15 5 2 7 20% 15611 128891 25811 61%
c u  6.95 55 50 2 2 138 10 2512 1887 3.1 15 5 2 7 20% 15601 128891 25811 61%
c v  7.00 55 50 2 2 138 10 2512 1830 3.1 15 5 2 7 20% 15601 128891 25811 61%
c
c  seconds  switched   rate       size/glue tier1    binary           remaining
c         MB reductions conflicts       size  tier2      irredundant
c          level restarts    redundant    glue   trail           variables
c
c w  7.04 55 50 2 2 138 10 2512 1830 3.1 15 5 2 7 20% 15601 128891 25811 61%
c x  7.09 55 50 2 2 138 10 2512 1830 3.1 15 5 2 7 20% 15731 128643 25782 61%
c =  7.22 55 50 2 2 138 10 2512 1830 3.1 15 5 2 7 20% 15776 128467 25747 61%
c d  7.25 55 50 2 2 138 10 2512 1826 3.1 15 5 2 7 20% 15576 128301 25661 61%
c t  7.27 55 50 2 2 138 10 2512 1826 3.1 15 5 2 7 20% 15450 128301 25661 61%
c b  7.28 55 50 2 2 138 10 2512 1826 3.1 15 5 2 7 20% 15450 128301 25660 61%
c f  7.33 55 50 2 2 138 10 2512 1826 3.1 15 5 2 7 20% 15457 127321 25661 61%
c c  7.73 55 50 2 2 138 10 2512 1822 3.1 15 5 2 7 20% 15303 127262 25642 60%
c d  7.75 55 50 2 2 138 10 2512 1822 3.1 15 5 2 7 20% 15268 127259 25642 60%
c u  7.83 55 50 2 2 138 10 2512 1749 3.1 15 5 2 7 20% 15268 127259 25642 60%
c v  7.91 55 50 2 2 138 10 2512 1738 3.1 15 5 2 7 20% 15268 127259 25642 60%
c w  7.94 55 50 2 2 138 10 2512 1737 3.1 15 5 2 7 20% 15268 127259 25642 60%
c x  7.98 55 50 2 2 138 10 2512 1736 3.1 15 5 2 7 20% 15290 127185 25642 60%
c =  8.11 55 50 2 2 138 10 2512 1736 3.1 15 5 2 7 20% 15298 127169 25634 60%
c d  8.13 55 50 2 2 138 10 2512 1736 3.1 15 5 2 7 20% 15286 127163 25631 60%
c t  8.15 55 50 2 2 138 10 2512 1736 3.1 15 5 2 7 20% 15274 127163 25625 60%
c b  8.16 55 50 2 2 138 10 2512 1736 3.1 15 5 2 7 20% 15274 127163 25621 60%
c f  8.21 55 50 2 2 138 10 2512 1736 3.1 15 5 2 7 20% 15287 126035 25622 60%
c i  8.22 55 50 2 2 138 10 2512 1736 3.1 15 5 2 7 20% 15287 126035 25622 60%
c i  8.22 55 50 2 2 138 10 2514 1736 3.1 15 5 2 7 20% 15288 126035 25621 60%
c
c  seconds  switched  rate       size/glue tier1    binary           remaining
c         MB reductions conflicts      size  tier2      irredundant
c          level restarts   redundant    glue   trail           variables
c
c i  9.49 55 41 2 2 138 8 2970 2087 4.9 22 4 2 7 32% 15327 126031 25620 60%
c i  9.49 55 41 2 2 138 8 2973 2087 4.9 22 4 2 7 32% 15329 126031 25619 60%
c i  9.50 55 41 2 2 138 8 2979 2089 4.9 22 4 2 7 32% 15332 126031 25617 60%
c i  9.50 55 41 2 2 138 8 2980 2089 4.9 22 4 2 7 32% 15332 126031 25616 60%
c i  9.59 55 41 2 2 141 8 3051 2149 4.9 22 4 2 7 32% 15339 126030 25612 60%
c i  9.60 55 41 2 2 141 8 3068 2162 4.9 22 4 2 7 31% 15341 126030 25609 60%
c i 10.03 55 40 2 2 141 8 3145 2222 4.9 22 4 2 7 33% 15350 126030 25608 60%
c } 10.03 55 40 3 2 141 8 3161 2236 4.9 22 4 2 7 33% 15351 126030 25608 60%
c [ 10.03 55 68 3 2 141 3 3161 2236 2.9 26 9 4 14 24% 15351 126030 25608 60%
c i 10.05 55 67 3 2 141 3 3271 2323 2.9 24 8 4 14 23% 15365 126029 25607 60%
c - 10.71 55 65 3 3 141 3 3416 2125 3.1 30 10 3 15 26% 15223 126029 25607 60%
c ] 12.45 55 61 4 3 141 3 3649 2349 3.6 40 11 3 15 31% 15223 126029 25607 60%
c { 12.45 55 40 4 3 141 8 3649 2349 4.9 22 4 2 7 33% 15223 126029 25607 60%
c i 12.55 55 42 4 3 165 8 3720 2399 4.7 22 5 2 7 32% 15236 126028 25602 60%
c i 12.55 55 42 4 3 165 8 3721 2399 4.7 22 5 2 7 32% 15236 126028 25587 60%
c i 13.02 55 41 4 3 288 9 4126 2753 4.3 21 5 2 7 30% 15267 126027 25586 60%
c i 13.05 55 40 4 3 300 9 4202 2808 4.3 21 5 2 7 29% 15274 126027 25572 60%
c i 13.05 55 40 4 3 300 9 4207 2810 4.3 21 5 2 7 29% 15276 126027 25565 60%
c i 13.29 55 41 4 3 355 8 4898 3384 3.9 18 5 1 4 25% 15316 126026 25563 60%
c i 13.30 55 42 4 3 355 9 4916 3397 3.9 18 5 1 4 25% 15318 126026 25562 60%
c
c  seconds  switched  rate       size/glue tier1    binary           remaining
c         MB reductions conflicts      size  tier2      irredundant
c          level restarts   redundant    glue   trail           variables
c
c - 13.49 55 42 4 4 403 9 5148 2872 3.7 18 5 1 4 25% 15138 126026 25562 60%
c i 13.51 55 41 4 4 403 8 5250 2950 3.7 18 5 1 4 24% 15149 126024 25561 60%
c i 13.97 55 42 4 4 437 9 5702 3327 3.8 18 5 1 4 25% 15173 126020 25560 60%
c i 14.17 55 41 4 4 478 9 5867 3479 3.7 18 5 1 4 25% 15180 126020 25558 60%
c i 14.22 55 41 4 4 478 9 5919 3521 3.7 18 5 1 4 26% 15185 126019 25557 60%
c } 14.25 55 41 5 4 478 9 6001 3598 3.7 18 5 1 4 26% 15187 126019 25557 60%
c [ 14.25 55 61 5 4 478 3 6001 3598 3.6 40 11 3 15 31% 15187 126019 25557 60%
c I 14.25 55 61 5 4 478 3 6001 3598 3.6 40 11 3 15 31% 15187 126019 25557 60%
c i 14.29 55 62 5 4 478 3 6113 3704 3.6 38 11 3 15 30% 15190 126019 25554 60%
c i 14.37 55 58 5 4 478 3 6524 4051 3.6 34 9 3 15 28% 15196 126019 25553 60%
c i 14.46 55 55 5 4 478 3 6955 4419 3.5 31 9 3 15 25% 15211 126017 25318 60%
c i 14.50 55 53 5 4 479 3 7101 4548 3.4 30 9 3 15 24% 15217 126017 25176 59%
c - 14.53 55 53 5 5 479 3 7148 3788 3.4 30 9 2 9 24% 14685 126017 25176 59%
c d 14.63 55 51 5 5 479 3 7734 4354 3.2 27 8 2 9 25% 15890 122178 25173 59%
c d 14.67 55 51 5 5 479 3 7734 4352 3.2 27 8 2 9 25% 14699 121392 24613 58%
c b 14.69 55 51 5 5 479 3 7734 4352 3.2 27 8 2 9 25% 14699 121392 24576 58%
c u 14.77 55 51 5 5 479 3 7734 4215 3.2 27 8 2 9 25% 14696 121392 24576 58%
c v 14.85 55 51 5 5 479 3 7734 4117 3.2 27 8 2 9 25% 14706 121392 24575 58%
c w 14.90 55 51 5 5 479 3 7734 4109 3.2 27 8 2 9 25% 14706 121392 24575 58%
c x 14.97 55 51 5 5 479 3 7734 4108 3.2 27 8 2 9 25% 14868 120821 24572 58%
c
c  seconds  switched  rate       size/glue tier1    binary           remaining
c         MB reductions conflicts      size  tier2      irredundant
c          level restarts   redundant    glue   trail           variables
c
c = 15.28 55 51 5 5 479 3 7734 4108 3.2 27 8 2 9 25% 14972 120710 24504 58%
c d 15.30 55 51 5 5 479 3 7734 4065 3.2 27 8 2 9 25% 14712 120305 24421 58%
c d 15.32 55 51 5 5 479 3 7734 4065 3.2 27 8 2 9 25% 14688 120303 24409 58%
c t 15.35 55 51 5 5 479 3 7734 4065 3.2 27 8 2 9 25% 14402 120303 24407 58%
c b 15.36 55 51 5 5 479 3 7734 4065 3.2 27 8 2 9 25% 14402 120303 24405 58%
c f 15.44 55 51 5 5 479 3 7734 4065 3.2 27 8 2 9 25% 14414 120177 24432 58%
c c 15.80 55 51 5 5 479 3 7734 4063 3.2 27 8 2 9 25% 14304 120162 24429 58%
c d 15.83 55 51 5 5 479 3 7734 4063 3.2 27 8 2 9 25% 14299 120157 24427 58%
c d 15.84 55 51 5 5 479 3 7734 4063 3.2 27 8 2 9 25% 14297 120157 24426 58%
c b 15.86 55 51 5 5 479 3 7734 4063 3.2 27 8 2 9 25% 14297 120157 24425 58%
c u 15.94 55 51 5 5 479 3 7734 3880 3.2 27 8 2 9 25% 14290 120157 24421 58%
c v 16.04 55 51 5 5 479 3 7734 3674 3.2 27 8 2 9 25% 14292 120157 24421 58%
c w 16.09 55 51 5 5 479 3 7734 3652 3.2 27 8 2 9 25% 14292 120157 24421 58%
c x 16.18 55 51 5 5 479 3 7734 3650 3.2 27 8 2 9 25% 14343 119802 24413 58%
c = 16.48 55 51 5 5 479 3 7734 3650 3.2 27 8 2 9 25% 14390 119673 24375 58%
c d 16.52 55 51 5 5 479 3 7734 3611 3.2 27 8 2 9 25% 14327 119265 24335 57%
c d 16.54 55 51 5 5 479 3 7734 3611 3.2 27 8 2 9 25% 14267 118915 24297 57%
c t 16.57 55 51 5 5 479 3 7734 3611 3.2 27 8 2 9 25% 14074 118915 24296 57%
c b 16.57 55 51 5 5 479 3 7734 3611 3.2 27 8 2 9 25% 14074 118915 24294 57%
c f 16.63 55 51 5 5 479 3 7734 3611 3.2 27 8 2 9 25% 14117 118808 24316 57%
c
c  seconds  switched  rate       size/glue tier1    binary           remaining
c         MB reductions conflicts      size  tier2      irredundant
c          level restarts   redundant    glue   trail           variables
c
c i 16.64 55 51 5 5 479 3 7734 3611 3.2 27 8 2 9 25% 14117 118808 24316 57%
c - 18.12 55 75 5 6 480 3 9384 4106 3.5 32 9 2 9 27% 13942 118806 24316 57%
c B 18.30 55 75 5 6 480 3 9772 4482 3.6 33 9 2 9 27% 13943 118806 24316 57%
c ] 18.38 55 76 6 6 480 3 9934 4634 3.5 33 9 2 9 27% 13944 118806 24316 57%
c { 18.38 55 41 6 6 480 9 9934 4634 3.7 18 5 1 4 26% 13944 118806 24316 57%
c o 18.40 55 41 6 6 481 9 10000 4696 3.7 18 5 1 4 26% 13948 118806 24316 57%
c i 18.58 55 40 6 6 498 8 10443 5079 3.6 17 5 1 4 25% 13970 118805 24312 57%
c i 18.67 55 40 6 6 499 8 10614 5229 3.5 17 5 1 4 25% 13976 118805 24311 57%
c i 18.72 55 40 6 6 500 8 10707 5305 3.5 17 5 1 4 25% 13984 118803 24310 57%
c i 18.81 55 39 6 6 501 8 10912 5481 3.5 17 5 1 4 25% 13997 118802 24292 57%
c i 18.88 55 38 6 6 503 8 11259 5799 3.5 16 5 1 4 25% 14007 118802 24261 57%
c i 18.93 55 38 6 6 506 8 11380 5899 3.5 16 5 1 4 24% 14015 118802 24260 57%
c i 19.05 55 37 6 6 532 8 11498 6001 3.4 16 5 1 4 24% 14020 118802 24255 57%
c - 19.20 55 37 6 7 553 7 11833 5036 3.4 16 5 1 4 24% 13939 118799 24255 57%
c i 19.21 55 37 6 7 553 7 11962 5160 3.4 16 5 1 4 24% 13942 118798 24254 57%
c i 19.21 55 37 6 7 553 7 11968 5160 3.4 16 5 1 4 24% 13947 118798 24251 57%
c i 19.21 55 37 6 7 553 7 11978 5164 3.4 16 5 1 4 24% 13951 118798 24250 57%
c i 19.25 55 37 6 7 553 7 12036 5209 3.4 16 5 1 4 24% 13954 118797 24217 57%
c i 19.30 55 37 6 7 554 7 12156 5314 3.5 16 5 1 4 24% 13962 118797 24168 57%
c i 19.34 55 37 6 7 564 7 12258 5410 3.4 16 5 1 4 24% 13964 118797 24167 57%
c
c  seconds  switched  rate        size/glue tier1    binary           remaining
c         MB reductions conflicts       size  tier2      irredundant
c          level restarts    redundant    glue   trail           variables
c
c i 19.34 55 37 6 7 568 7 12270 5416 3.4 16 5 1 4 24% 13966 118797 24161 57%
c i 19.42 55 37 6 7 594 7 12360 5487 3.4 16 5 1 4 24% 13977 118797 24160 57%
c i 19.44 55 37 6 7 600 7 12400 5520 3.4 16 5 1 4 24% 13981 118796 24159 57%
c i 19.48 55 36 6 7 602 7 12495 5591 3.4 16 5 1 4 24% 13988 118796 24154 57%
c 2 19.50 55 36 6 7 602 7 12557 5642 3.4 16 5 1 4 24% 13993 118796 24148 57%
c s 19.58 55 36 6 7 602 7 12557 5642 3.4 16 5 1 4 24% 15976 111508 24148 57%
c e 20.58 56 36 6 7 602 7 12557 5642 3.4 16 5 1 4 24% 9373 101840 17438 41%
c 2 20.58 56 36 6 7 602 7 12557 5642 3.4 16 5 1 4 24% 9347 101840 17438 41%
c s 20.64 56 36 6 7 602 7 12557 5642 3.4 16 5 1 4 24% 9542 97936 17438 41%
c e 20.86 56 36 6 7 602 7 12557 5642 3.4 16 5 1 4 24% 9260 97654 17188 41%
c ^ 20.86 56 36 6 7 602 7 12557 5642 3.4 16 5 1 4 24% 9260 97654 17188 41%
c i 20.90 56 36 6 7 604 7 12627 3040 3.4 16 5 1 4 24% 9260 97654 17184 41%
c i 20.90 56 36 6 7 605 7 12632 3044 3.4 16 5 1 4 24% 9260 97654 17183 41%
c i 20.90 56 36 6 7 607 7 12635 3046 3.4 16 5 1 4 24% 9260 97654 17182 41%
c i 20.95 56 36 6 7 608 7 12891 3254 3.4 15 5 1 4 23% 9269 97652 17181 41%
c i 20.95 56 36 6 7 608 7 12898 3256 3.4 15 5 1 4 23% 9271 97650 17174 41%
c i 20.95 56 36 6 7 608 7 12899 3256 3.4 15 5 1 4 23% 9271 97650 17130 40%
c i 20.95 56 36 6 7 608 7 12932 3273 3.4 15 5 1 4 23% 9275 97649 17128 40%
c i 20.95 56 36 6 7 608 7 12949 3286 3.4 15 5 1 4 23% 9276 97649 17103 40%
c i 21.09 56 36 6 7 651 7 13307 3626 3.3 15 5 1 4 23% 9282 97649 17102 40%
c
c  seconds  switched  rate        size/glue tier1    binary         remaining
c         MB reductions conflicts       size  tier2     irredundant
c          level restarts    redundant    glue   trail         variables
c
c } 21.23 56 36 7 7 708 7 14003 4229 3.2 15 5 1 4 22% 9303 97648 17102 40%
c [ 21.23 56 76 7 7 708 3 14003 4229 3.5 33 9 2 9 27% 9303 97648 17102 40%
c i 21.24 56 76 7 7 708 3 14034 4251 3.5 33 9 2 9 27% 9305 97648 17098 40%
c - 21.39 56 72 7 8 708 3 14480 4010 3.5 31 9 2 9 26% 9379 95676 17098 40%
c W 21.55 56 67 7 8 709 3 15303 4786 3.3 29 9 2 9 25% 9376 95676 17098 40%
c i 21.63 56 65 7 8 709 3 15649 5099 3.3 28 9 2 9 25% 9382 95676 17097 40%
c i 21.65 56 64 7 8 709 3 15728 5139 3.3 28 9 2 9 24% 9387 95676 16702 39%
c i 21.65 56 64 7 8 709 3 15731 5139 3.3 28 9 2 9 24% 9389 95676 16587 39%
c i 21.66 56 64 7 8 709 3 15735 5140 3.3 28 9 2 9 24% 9391 95676 16531 39%
c ] 21.66 56 64 7 8 709 3 15737 5140 3.3 28 9 2 9 24% 9391 95676 16169 38%
c 0 21.66 56 36 7 8 709 7 15737 5140 3.2 15 5 1 4 22% 9391 95676 16169 38%
c
c ---- [ result ] ------------------------------------------------------------
c
s UNSATISFIABLE
c
c ---- [ profiling ] ---------------------------------------------------------
c
c          12.38   57.17 %  search
c           6.52   30.12 %  focused
c           6.18   28.54 %  probe
c           5.86   27.04 %  stable
c           5.22   24.13 %  simplify
c           3.86   17.84 %  preprocess
c           1.88    8.66 %  congruence
c           1.52    7.02 %  factor
c           1.46    6.76 %  fastel
c           1.38    6.36 %  eliminate
c           1.03    4.78 %  sweep
c           1.01    4.65 %  vivify
c           0.56    2.59 %  substitute
c           0.17    0.77 %  reduce
c           0.17    0.76 %  parse
c           0.14    0.66 %  subsume
c           0.08    0.39 %  backbone
c           0.07    0.32 %  walking
c           0.06    0.29 %  transitive
c           0.02    0.10 %  lucky
c =============================================
c          21.66  100.00 %  total
c
c ---- [ statistics ] --------------------------------------------------------
c
c ands_eliminated:                       1150                5 %  eliminated
c ands_extracted:                        2968                7 %  extracted
c arena_enlarged:                          19              100 %  resize
c arena_garbage:                         4464                0 %  resident set
c arena_resized:                           19              828    interval
c backbone_implied:                       623                1.05 per unit
c backbone_units:                         595                1 %  variables
c best_saved:                              54              291    interval
c chronological:                           75                0 %  conflicts
c clauses_deleted:                     265516               71 %  added
c clauses_factored:                     18452                5 %  added
c clauses_improved:                      4626               31 %  learned
c clauses_kept1:                          194                4 %  improved
c clauses_kept2:                         2696               58 %  improved
c clauses_kept3:                          306                7 %  improved
c clauses_promoted1:                     1332               29 %  improved
c clauses_promoted2:                       98                2 %  improved
c clauses_reduced:                       4457               30 %  learned
c clauses_reduced_tier2:                 2276               51 %  reduced
c clauses_reduced_tier3:                 2181               49 %  reduced
c clauses_unfactored:                   42352              230 %  factored
c compacted:                                2               25 %  reductions
c conflicts:                            15737              726.63 per second
c congruent:                             1533                4 %  variables
c congruent_ands:                         103                7 %  congruent
c congruent_arity:                     398071                2.49 per gate
c congruent_arity_ands:                 94202                3.25 per AND
c congruent_arity_xors:                187568                2.03 per XOR
c congruent_binaries:                     736                0 %  clauses added
c congruent_collisions:                260647                1.56 per lookup
c congruent_collisions_find:           130002               50 %  collisions
c congruent_collisions_index:          129788               50 %  collisions
c congruent_collisions_removed:           857                0 %  collisions
c congruent_equivalences:                1383               90 %  congruent
c congruent_indexed:                   163422                1.02 per gate
c congruent_lookups:                   167392                1.05 per gate
c congruent_lookups_find:              163867               98 %  lookups
c congruent_lookups_removed:             3525                2 %  lookups
c congruent_rewritten:                   3801                2 %  gates
c congruent_rewritten_ands:              2138               56 %  rewritten
c congruent_rewritten_ites:              1208               32 %  rewritten
c congruent_rewritten_xors:               455               12 %  rewritten
c congruent_simplified:                    10                0 %  gates
c congruent_simplified_ands:                1               10 %  simplified
c congruent_simplified_xors:                9               90 %  simplified
c congruent_subsumed:                     322                0 %  original
c congruent_trivial_ite:                    1                0 %  congruent
c congruent_unary:                         14                1 %  congruent
c congruent_unary_xors:                    14              100 %  unary
c congruent_units:                          1                0 %  variables
c congruent_xors:                          32                2 %  congruent
c decisions:                            77355                4.92 per conflict
c definitions_checked:                  39126               81 %  attempts
c definitions_eliminated:                3607               16 %  eliminated
c definitions_extracted:                33854               79 %  extracted
c definition_units:                         8                0 %  variables
c defragmentations:                         3             5246    interval
c dense_propagations:                     101                0 %  propagations
c dense_ticks:                           1870                0 %  ticks
c duplicated:                              26                0 %  added
c eagerly_subsumed:                       726                5 %  learned
c eliminate_attempted:                  48403                1.14 per variable
c eliminated:                           22601               53 %  variables
c equivalences_eliminated:                  9                0 %  eliminated
c equivalences_extracted:                   9                0 %  extracted
c factored:                              1606                4 %  variables
c fast_eliminated:                      15661               69 %  eliminated
c fast_strengthened:                     1451               18 %  per strengthened
c fast_subsumed:                         3096               27 %  per subsumed
c fresh:                                 1606                4 %  variables
c flipped:                               4050             2025.00 per walk
c focused_decisions:                    57038               74 %  decisions
c focused_modes:                            3             5246    interval
c focused_propagations:               9325921               46 %  propagations
c focused_ticks:                     44876007               48 %  ticks
c forward_strengthened:                  6469               82 %  per strengthened
c forward_subsumed:                      8228               73 %  per subsumed
c forward_subsumptions:                     2             7868    interval
c gates_checked:                        48390              100 %  attempts
c gates_eliminated:                      6369               28 %  eliminated
c gates_extracted:                      43118               89 %  attempts
c if_then_else_eliminated:               1603                7 %  eliminated
c if_then_else_extracted:                6287               15 %  extracted
c initial_decisions:                      155                0 %  decisions
c iterations:                              70                0 %  variables
c jumped_reasons:                     3016905               15 %  propagations
c kitten_conflicts:                    234061                2.31 per solved
c kitten_decisions:                   4514507               44.64 per solved
c kitten_flip:                         890764 
c kitten_flipped:                      245283               28 %  flip
c kitten_sat:                           32159               32 %  solved
c kitten_unknown:                           7                0 %  solved
c kitten_unsat:                         68974               68 %  solved
c literals_bumped:                    4346681              288.59 per clause
c literals_deduced:                    630698               41.87 per clause
c literals_factored:                    37586                2.04 per factored
c literals_learned:                    316142               20.99 per clause
c literals_minshrunken:                176255               56 %  shrunken
c literals_shrunken:                   314575               50 %  deduced
c moved:                                    3               38 %  reductions
c on_the_fly_strengthened:                345                2 %  of conflicts
c on_the_fly_subsumed:                      8                0 %  of conflicts
c probing_propagations:               3575138               18 %  propagations
c propagations:                      20284826           936618    per second
c queue_decisions:                      46244               60 %  decision
c random_decisions:                     11499               15 %  decision
c reductions:                               8             1967    interval
c reordered:                                1            15737    interval
c reordered_focused:                        1              100 %  reordered
c rephased:                                 5             3147    interval
c rephased_best:                            2               40 %  rephased
c rephased_inverted:                        1               20 %  rephased
c rephased_walking:                         2               40 %  rephased
c restarts:                               709               22    interval
c restarts_levels:                       2188                3.09 per restart
c restarts_reused_levels:                2188              100 %  levels
c restarts_reused_trails:                 251               35 %  restarts
c saved_decisions:                      32840               42 %  decisions
c score_decisions:                      20519               27 %  decision
c stable_decisions:                     20317               26 %  decisions
c stable_propagations:                7340639               36 %  propagations
c strengthened:                          7920                0 %  checks
c substituted:                           2773                7 %  variables
c substitute_units:                         1                0 %  variables
c subsumed:                             11324                1 %  checks
c sweep_clauses:                       538532              252.83 per sweep_variables
c sweep_depth:                           4259                2.00 per sweep_variables
c sweep_environment:                   320794              150.61 per sweep_variables
c sweep_fixed_backbone:                    13                0.01 per sweep_variables
c sweep_flip_backbone:                 543225              255.04 per sweep_variables
c sweep_flipped_backbone:              152797               28 %  sweep_flip_backbone
c sweep_flip_equivalences:              21645               10.16 per sweep_variables
c sweep_flipped_equivalences:              23                0 %  sweep_flip_equivalences
c sweep_sat:                            26887               95 %  sweep_solved
c sweep_sat_backbone:                   13989              100 %  sweep_solved_backbone
c sweep_sat_equivalences:               10770               90 %  sweep_solved_equivalences
c sweep_solved_backbone:                14028               50 %  sweep_solved
c sweep_solved_equivalences:            12002               43 %  sweep_solved
c sweep_unknown_backbone:                   1                0 %  sweep_solved_backbone
c sweep_unknown_equivalences:               4                0 %  sweep_solved_equivalences
c sweep_unsat:                           1266                4 %  sweep_solved
c sweep_unsat_backbone:                    38                0 %  sweep_solve_backbone
c sweep_unsat_equivalences:              1228               10 %  sweep_solve_equivalences
c sweep_variables:                       2130                5 %  variables
c switched:                                 7             2248    interval
c target_decisions:                     63542               82 %  decisions
c target_saved:                            86              183    interval
c transitive_reduced:                     617                0 %  added
c transitive_reductions:                    4             3934    interval
c transitive_units:                         7                0 %  variables
c vectors_defrags_needed:                   2               67 %  defrags
c vivified:                              2639               50 %  checks
c vivified_asym:                          440               17 %  vivified
c vivified_implied:                       629               24 %  vivified
c vivified_instantiated:                   53                2 %  vivified
c vivified_instirr:                         4                8 %  instantiated
c vivified_instred:                        49               92 %  instantiated
c vivified_irredundant:                  1019               39 %  vivified
c vivified_promoted:                        4                0 %  vivified
c vivified_shrunken:                     1126               43 %  vivified
c vivified_shrunkirr:                     309               27 %  shrunken
c vivified_shrunkred:                     817               73 %  shrunken
c vivified_subirr:                        266               68 %  subsumed
c vivified_subred:                        125               32 %  subsumed
c vivified_subsumed:                      391               15 %  vivified
c vivified_tier1:                         702               27 %  vivified
c vivified_tier2:                         758               29 %  vivified
c vivified_tier3:                         160                6 %  vivified
c vivify_units:                             9                0 %  variables
c walk_decisions:                           2              100 %  walks
c walk_improved:                            2              100 %  walks
c walks:                                    2             7868    interval
c warming_conflicts:                      263              131.50 per walk
c weakened:                            145176               39 %  added
c
c ---- [ checker ] -----------------------------------------------------------
c
c checker_added:                      1584837              100 %  
c checker_checked:                    1404408               89 %  added
c checker_removed:                    1462758               92 %  added
c
c ---- [ glue usage ] --------------------------------------------------------
c
c focused glue 1 used 13364 clauses 53.61% accumulated 53.61% tier1
c focused glue 2 used  5772 clauses 23.15% accumulated 76.77%
c focused glue 3 used  2445 clauses  9.81% accumulated 86.57%
c focused glue 4 used  1298 clauses  5.21% accumulated 91.78% tier2
c
c stable glue 2   used 6169 clauses 21.98% accumulated 59.71% tier1
c stable glue 3   used 3330 clauses 11.86% accumulated 71.58%
c stable glue 4-7 used 4547 clauses 16.20% accumulated 87.78%
c stable glue 8   used  541 clauses  1.93% accumulated 89.70%
c stable glue 9   used  441 clauses  1.57% accumulated 91.27% tier2
c
c ---- [ resources ] ---------------------------------------------------------
c
c maximum-resident-set-size:         58703872 bytes         56 MB
c max-allocated:                     48976107 bytes         83 %
c process-time:                            22s              21.66 seconds
c
c ---- [ shutting down ] -----------------------------------------------------
c
c exit 20
